p edge 23 64
e 1 2
e 1 3
e 1 5
e 1 9
e 1 12
e 1 16
e 1 19
e 1 22
e 2 11
e 2 12
e 2 14
e 2 15
e 2 22
e 2 23
e 3 5
e 3 9
e 3 10
e 3 11
e 4 14
e 4 23
e 5 11
e 5 15
e 5 16
e 5 18
e 5 19
e 6 15
e 6 19
e 6 21
e 7 12
e 8 12
e 8 13
e 8 20
e 8 21
e 9 10
e 9 21
e 9 23
e 10 14
e 10 17
e 10 19
e 11 14
e 11 15
e 11 20
e 11 22
e 12 14
e 12 19
e 13 14
e 13 15
e 13 16
e 13 18
e 13 19
e 13 21
e 13 23
e 14 17
e 14 19
e 15 16
e 15 17
e 16 18
e 16 22
e 17 20
e 18 19
e 18 20
e 20 22
e 21 22
e 22 23
